c description: Graph pigeonhole principle formula on fast_gnp_random_graph(20,10,0.9)
c generator: CNFgen (0.9.0)
c copyright: (C) 2012-2020 Massimo Lauria <massimo.lauria@uniroma1.it>
c url: https://massimolauria.net/cnfgen
c
p cnf 184 1624
1 2 3 4 5 6 7 8 9 0
10 11 12 13 14 15 16 17 18 19 0
20 21 22 23 24 25 26 27 28 29 0
30 31 32 33 34 35 36 37 0
38 39 40 41 42 43 44 45 46 0
47 48 49 50 51 52 53 54 55 0
56 57 58 59 60 61 62 63 0
64 65 66 67 68 69 70 71 72 0
73 74 75 76 77 78 79 80 81 82 0
83 84 85 86 87 88 89 90 91 92 0
93 94 95 96 97 98 99 100 101 0
102 103 104 105 106 107 108 109 110 111 0
112 113 114 115 116 117 118 119 120 121 0
122 123 124 125 126 127 128 0
129 130 131 132 133 134 135 136 137 0
138 139 140 141 142 143 144 145 146 0
147 148 149 150 151 152 153 154 155 156 0
157 158 159 160 161 162 163 164 165 0
166 167 168 169 170 171 172 173 174 0
175 176 177 178 179 180 181 182 183 184 0
-1 -10 0
-1 -20 0
-1 -30 0
-1 -47 0
-1 -56 0
-1 -64 0
-1 -73 0
-1 -83 0
-1 -93 0
-1 -102 0
-1 -112 0
-1 -129 0
-1 -138 0
-1 -147 0
-1 -157 0
-1 -166 0
-1 -175 0
-10 -20 0
-10 -30 0
-10 -47 0
-10 -56 0
-10 -64 0
-10 -73 0
-10 -83 0
-10 -93 0
-10 -102 0
-10 -112 0
-10 -129 0
-10 -138 0
-10 -147 0
-10 -157 0
-10 -166 0
-10 -175 0
-20 -30 0
-20 -47 0
-20 -56 0
-20 -64 0
-20 -73 0
-20 -83 0
-20 -93 0
-20 -102 0
-20 -112 0
-20 -129 0
-20 -138 0
-20 -147 0
-20 -157 0
-20 -166 0
-20 -175 0
-30 -47 0
-30 -56 0
-30 -64 0
-30 -73 0
-30 -83 0
-30 -93 0
-30 -102 0
-30 -112 0
-30 -129 0
-30 -138 0
-30 -147 0
-30 -157 0
-30 -166 0
-30 -175 0
-47 -56 0
-47 -64 0
-47 -73 0
-47 -83 0
-47 -93 0
-47 -102 0
-47 -112 0
-47 -129 0
-47 -138 0
-47 -147 0
-47 -157 0
-47 -166 0
-47 -175 0
-56 -64 0
-56 -73 0
-56 -83 0
-56 -93 0
-56 -102 0
-56 -112 0
-56 -129 0
-56 -138 0
-56 -147 0
-56 -157 0
-56 -166 0
-56 -175 0
-64 -73 0
-64 -83 0
-64 -93 0
-64 -102 0
-64 -112 0
-64 -129 0
-64 -138 0
-64 -147 0
-64 -157 0
-64 -166 0
-64 -175 0
-73 -83 0
-73 -93 0
-73 -102 0
-73 -112 0
-73 -129 0
-73 -138 0
-73 -147 0
-73 -157 0
-73 -166 0
-73 -175 0
-83 -93 0
-83 -102 0
-83 -112 0
-83 -129 0
-83 -138 0
-83 -147 0
-83 -157 0
-83 -166 0
-83 -175 0
-93 -102 0
-93 -112 0
-93 -129 0
-93 -138 0
-93 -147 0
-93 -157 0
-93 -166 0
-93 -175 0
-102 -112 0
-102 -129 0
-102 -138 0
-102 -147 0
-102 -157 0
-102 -166 0
-102 -175 0
-112 -129 0
-112 -138 0
-112 -147 0
-112 -157 0
-112 -166 0
-112 -175 0
-129 -138 0
-129 -147 0
-129 -157 0
-129 -166 0
-129 -175 0
-138 -147 0
-138 -157 0
-138 -166 0
-138 -175 0
-147 -157 0
-147 -166 0
-147 -175 0
-157 -166 0
-157 -175 0
-166 -175 0
-2 -11 0
-2 -21 0
-2 -38 0
-2 -48 0
-2 -57 0
-2 -65 0
-2 -74 0
-2 -84 0
-2 -94 0
-2 -103 0
-2 -113 0
-2 -122 0
-2 -139 0
-2 -148 0
-2 -158 0
-2 -167 0
-2 -176 0
-11 -21 0
-11 -38 0
-11 -48 0
-11 -57 0
-11 -65 0
-11 -74 0
-11 -84 0
-11 -94 0
-11 -103 0
-11 -113 0
-11 -122 0
-11 -139 0
-11 -148 0
-11 -158 0
-11 -167 0
-11 -176 0
-21 -38 0
-21 -48 0
-21 -57 0
-21 -65 0
-21 -74 0
-21 -84 0
-21 -94 0
-21 -103 0
-21 -113 0
-21 -122 0
-21 -139 0
-21 -148 0
-21 -158 0
-21 -167 0
-21 -176 0
-38 -48 0
-38 -57 0
-38 -65 0
-38 -74 0
-38 -84 0
-38 -94 0
-38 -103 0
-38 -113 0
-38 -122 0
-38 -139 0
-38 -148 0
-38 -158 0
-38 -167 0
-38 -176 0
-48 -57 0
-48 -65 0
-48 -74 0
-48 -84 0
-48 -94 0
-48 -103 0
-48 -113 0
-48 -122 0
-48 -139 0
-48 -148 0
-48 -158 0
-48 -167 0
-48 -176 0
-57 -65 0
-57 -74 0
-57 -84 0
-57 -94 0
-57 -103 0
-57 -113 0
-57 -122 0
-57 -139 0
-57 -148 0
-57 -158 0
-57 -167 0
-57 -176 0
-65 -74 0
-65 -84 0
-65 -94 0
-65 -103 0
-65 -113 0
-65 -122 0
-65 -139 0
-65 -148 0
-65 -158 0
-65 -167 0
-65 -176 0
-74 -84 0
-74 -94 0
-74 -103 0
-74 -113 0
-74 -122 0
-74 -139 0
-74 -148 0
-74 -158 0
-74 -167 0
-74 -176 0
-84 -94 0
-84 -103 0
-84 -113 0
-84 -122 0
-84 -139 0
-84 -148 0
-84 -158 0
-84 -167 0
-84 -176 0
-94 -103 0
-94 -113 0
-94 -122 0
-94 -139 0
-94 -148 0
-94 -158 0
-94 -167 0
-94 -176 0
-103 -113 0
-103 -122 0
-103 -139 0
-103 -148 0
-103 -158 0
-103 -167 0
-103 -176 0
-113 -122 0
-113 -139 0
-113 -148 0
-113 -158 0
-113 -167 0
-113 -176 0
-122 -139 0
-122 -148 0
-122 -158 0
-122 -167 0
-122 -176 0
-139 -148 0
-139 -158 0
-139 -167 0
-139 -176 0
-148 -158 0
-148 -167 0
-148 -176 0
-158 -167 0
-158 -176 0
-167 -176 0
-3 -12 0
-3 -22 0
-3 -31 0
-3 -39 0
-3 -58 0
-3 -66 0
-3 -75 0
-3 -85 0
-3 -95 0
-3 -104 0
-3 -114 0
-3 -123 0
-3 -130 0
-3 -140 0
-3 -149 0
-3 -159 0
-3 -168 0
-3 -177 0
-12 -22 0
-12 -31 0
-12 -39 0
-12 -58 0
-12 -66 0
-12 -75 0
-12 -85 0
-12 -95 0
-12 -104 0
-12 -114 0
-12 -123 0
-12 -130 0
-12 -140 0
-12 -149 0
-12 -159 0
-12 -168 0
-12 -177 0
-22 -31 0
-22 -39 0
-22 -58 0
-22 -66 0
-22 -75 0
-22 -85 0
-22 -95 0
-22 -104 0
-22 -114 0
-22 -123 0
-22 -130 0
-22 -140 0
-22 -149 0
-22 -159 0
-22 -168 0
-22 -177 0
-31 -39 0
-31 -58 0
-31 -66 0
-31 -75 0
-31 -85 0
-31 -95 0
-31 -104 0
-31 -114 0
-31 -123 0
-31 -130 0
-31 -140 0
-31 -149 0
-31 -159 0
-31 -168 0
-31 -177 0
-39 -58 0
-39 -66 0
-39 -75 0
-39 -85 0
-39 -95 0
-39 -104 0
-39 -114 0
-39 -123 0
-39 -130 0
-39 -140 0
-39 -149 0
-39 -159 0
-39 -168 0
-39 -177 0
-58 -66 0
-58 -75 0
-58 -85 0
-58 -95 0
-58 -104 0
-58 -114 0
-58 -123 0
-58 -130 0
-58 -140 0
-58 -149 0
-58 -159 0
-58 -168 0
-58 -177 0
-66 -75 0
-66 -85 0
-66 -95 0
-66 -104 0
-66 -114 0
-66 -123 0
-66 -130 0
-66 -140 0
-66 -149 0
-66 -159 0
-66 -168 0
-66 -177 0
-75 -85 0
-75 -95 0
-75 -104 0
-75 -114 0
-75 -123 0
-75 -130 0
-75 -140 0
-75 -149 0
-75 -159 0
-75 -168 0
-75 -177 0
-85 -95 0
-85 -104 0
-85 -114 0
-85 -123 0
-85 -130 0
-85 -140 0
-85 -149 0
-85 -159 0
-85 -168 0
-85 -177 0
-95 -104 0
-95 -114 0
-95 -123 0
-95 -130 0
-95 -140 0
-95 -149 0
-95 -159 0
-95 -168 0
-95 -177 0
-104 -114 0
-104 -123 0
-104 -130 0
-104 -140 0
-104 -149 0
-104 -159 0
-104 -168 0
-104 -177 0
-114 -123 0
-114 -130 0
-114 -140 0
-114 -149 0
-114 -159 0
-114 -168 0
-114 -177 0
-123 -130 0
-123 -140 0
-123 -149 0
-123 -159 0
-123 -168 0
-123 -177 0
-130 -140 0
-130 -149 0
-130 -159 0
-130 -168 0
-130 -177 0
-140 -149 0
-140 -159 0
-140 -168 0
-140 -177 0
-149 -159 0
-149 -168 0
-149 -177 0
-159 -168 0
-159 -177 0
-168 -177 0
-13 -23 0
-13 -32 0
-13 -40 0
-13 -49 0
-13 -59 0
-13 -67 0
-13 -76 0
-13 -86 0
-13 -96 0
-13 -105 0
-13 -115 0
-13 -131 0
-13 -141 0
-13 -150 0
-13 -169 0
-13 -178 0
-23 -32 0
-23 -40 0
-23 -49 0
-23 -59 0
-23 -67 0
-23 -76 0
-23 -86 0
-23 -96 0
-23 -105 0
-23 -115 0
-23 -131 0
-23 -141 0
-23 -150 0
-23 -169 0
-23 -178 0
-32 -40 0
-32 -49 0
-32 -59 0
-32 -67 0
-32 -76 0
-32 -86 0
-32 -96 0
-32 -105 0
-32 -115 0
-32 -131 0
-32 -141 0
-32 -150 0
-32 -169 0
-32 -178 0
-40 -49 0
-40 -59 0
-40 -67 0
-40 -76 0
-40 -86 0
-40 -96 0
-40 -105 0
-40 -115 0
-40 -131 0
-40 -141 0
-40 -150 0
-40 -169 0
-40 -178 0
-49 -59 0
-49 -67 0
-49 -76 0
-49 -86 0
-49 -96 0
-49 -105 0
-49 -115 0
-49 -131 0
-49 -141 0
-49 -150 0
-49 -169 0
-49 -178 0
-59 -67 0
-59 -76 0
-59 -86 0
-59 -96 0
-59 -105 0
-59 -115 0
-59 -131 0
-59 -141 0
-59 -150 0
-59 -169 0
-59 -178 0
-67 -76 0
-67 -86 0
-67 -96 0
-67 -105 0
-67 -115 0
-67 -131 0
-67 -141 0
-67 -150 0
-67 -169 0
-67 -178 0
-76 -86 0
-76 -96 0
-76 -105 0
-76 -115 0
-76 -131 0
-76 -141 0
-76 -150 0
-76 -169 0
-76 -178 0
-86 -96 0
-86 -105 0
-86 -115 0
-86 -131 0
-86 -141 0
-86 -150 0
-86 -169 0
-86 -178 0
-96 -105 0
-96 -115 0
-96 -131 0
-96 -141 0
-96 -150 0
-96 -169 0
-96 -178 0
-105 -115 0
-105 -131 0
-105 -141 0
-105 -150 0
-105 -169 0
-105 -178 0
-115 -131 0
-115 -141 0
-115 -150 0
-115 -169 0
-115 -178 0
-131 -141 0
-131 -150 0
-131 -169 0
-131 -178 0
-141 -150 0
-141 -169 0
-141 -178 0
-150 -169 0
-150 -178 0
-169 -178 0
-4 -14 0
-4 -24 0
-4 -33 0
-4 -41 0
-4 -50 0
-4 -68 0
-4 -77 0
-4 -87 0
-4 -106 0
-4 -116 0
-4 -124 0
-4 -132 0
-4 -142 0
-4 -151 0
-4 -160 0
-4 -179 0
-14 -24 0
-14 -33 0
-14 -41 0
-14 -50 0
-14 -68 0
-14 -77 0
-14 -87 0
-14 -106 0
-14 -116 0
-14 -124 0
-14 -132 0
-14 -142 0
-14 -151 0
-14 -160 0
-14 -179 0
-24 -33 0
-24 -41 0
-24 -50 0
-24 -68 0
-24 -77 0
-24 -87 0
-24 -106 0
-24 -116 0
-24 -124 0
-24 -132 0
-24 -142 0
-24 -151 0
-24 -160 0
-24 -179 0
-33 -41 0
-33 -50 0
-33 -68 0
-33 -77 0
-33 -87 0
-33 -106 0
-33 -116 0
-33 -124 0
-33 -132 0
-33 -142 0
-33 -151 0
-33 -160 0
-33 -179 0
-41 -50 0
-41 -68 0
-41 -77 0
-41 -87 0
-41 -106 0
-41 -116 0
-41 -124 0
-41 -132 0
-41 -142 0
-41 -151 0
-41 -160 0
-41 -179 0
-50 -68 0
-50 -77 0
-50 -87 0
-50 -106 0
-50 -116 0
-50 -124 0
-50 -132 0
-50 -142 0
-50 -151 0
-50 -160 0
-50 -179 0
-68 -77 0
-68 -87 0
-68 -106 0
-68 -116 0
-68 -124 0
-68 -132 0
-68 -142 0
-68 -151 0
-68 -160 0
-68 -179 0
-77 -87 0
-77 -106 0
-77 -116 0
-77 -124 0
-77 -132 0
-77 -142 0
-77 -151 0
-77 -160 0
-77 -179 0
-87 -106 0
-87 -116 0
-87 -124 0
-87 -132 0
-87 -142 0
-87 -151 0
-87 -160 0
-87 -179 0
-106 -116 0
-106 -124 0
-106 -132 0
-106 -142 0
-106 -151 0
-106 -160 0
-106 -179 0
-116 -124 0
-116 -132 0
-116 -142 0
-116 -151 0
-116 -160 0
-116 -179 0
-124 -132 0
-124 -142 0
-124 -151 0
-124 -160 0
-124 -179 0
-132 -142 0
-132 -151 0
-132 -160 0
-132 -179 0
-142 -151 0
-142 -160 0
-142 -179 0
-151 -160 0
-151 -179 0
-160 -179 0
-5 -15 0
-5 -25 0
-5 -42 0
-5 -51 0
-5 -60 0
-5 -69 0
-5 -78 0
-5 -88 0
-5 -97 0
-5 -107 0
-5 -117 0
-5 -125 0
-5 -133 0
-5 -143 0
-5 -152 0
-5 -161 0
-5 -170 0
-5 -180 0
-15 -25 0
-15 -42 0
-15 -51 0
-15 -60 0
-15 -69 0
-15 -78 0
-15 -88 0
-15 -97 0
-15 -107 0
-15 -117 0
-15 -125 0
-15 -133 0
-15 -143 0
-15 -152 0
-15 -161 0
-15 -170 0
-15 -180 0
-25 -42 0
-25 -51 0
-25 -60 0
-25 -69 0
-25 -78 0
-25 -88 0
-25 -97 0
-25 -107 0
-25 -117 0
-25 -125 0
-25 -133 0
-25 -143 0
-25 -152 0
-25 -161 0
-25 -170 0
-25 -180 0
-42 -51 0
-42 -60 0
-42 -69 0
-42 -78 0
-42 -88 0
-42 -97 0
-42 -107 0
-42 -117 0
-42 -125 0
-42 -133 0
-42 -143 0
-42 -152 0
-42 -161 0
-42 -170 0
-42 -180 0
-51 -60 0
-51 -69 0
-51 -78 0
-51 -88 0
-51 -97 0
-51 -107 0
-51 -117 0
-51 -125 0
-51 -133 0
-51 -143 0
-51 -152 0
-51 -161 0
-51 -170 0
-51 -180 0
-60 -69 0
-60 -78 0
-60 -88 0
-60 -97 0
-60 -107 0
-60 -117 0
-60 -125 0
-60 -133 0
-60 -143 0
-60 -152 0
-60 -161 0
-60 -170 0
-60 -180 0
-69 -78 0
-69 -88 0
-69 -97 0
-69 -107 0
-69 -117 0
-69 -125 0
-69 -133 0
-69 -143 0
-69 -152 0
-69 -161 0
-69 -170 0
-69 -180 0
-78 -88 0
-78 -97 0
-78 -107 0
-78 -117 0
-78 -125 0
-78 -133 0
-78 -143 0
-78 -152 0
-78 -161 0
-78 -170 0
-78 -180 0
-88 -97 0
-88 -107 0
-88 -117 0
-88 -125 0
-88 -133 0
-88 -143 0
-88 -152 0
-88 -161 0
-88 -170 0
-88 -180 0
-97 -107 0
-97 -117 0
-97 -125 0
-97 -133 0
-97 -143 0
-97 -152 0
-97 -161 0
-97 -170 0
-97 -180 0
-107 -117 0
-107 -125 0
-107 -133 0
-107 -143 0
-107 -152 0
-107 -161 0
-107 -170 0
-107 -180 0
-117 -125 0
-117 -133 0
-117 -143 0
-117 -152 0
-117 -161 0
-117 -170 0
-117 -180 0
-125 -133 0
-125 -143 0
-125 -152 0
-125 -161 0
-125 -170 0
-125 -180 0
-133 -143 0
-133 -152 0
-133 -161 0
-133 -170 0
-133 -180 0
-143 -152 0
-143 -161 0
-143 -170 0
-143 -180 0
-152 -161 0
-152 -170 0
-152 -180 0
-161 -170 0
-161 -180 0
-170 -180 0
-6 -16 0
-6 -26 0
-6 -34 0
-6 -43 0
-6 -52 0
-6 -61 0
-6 -70 0
-6 -79 0
-6 -89 0
-6 -98 0
-6 -108 0
-6 -118 0
-6 -134 0
-6 -144 0
-6 -153 0
-6 -162 0
-6 -171 0
-6 -181 0
-16 -26 0
-16 -34 0
-16 -43 0
-16 -52 0
-16 -61 0
-16 -70 0
-16 -79 0
-16 -89 0
-16 -98 0
-16 -108 0
-16 -118 0
-16 -134 0
-16 -144 0
-16 -153 0
-16 -162 0
-16 -171 0
-16 -181 0
-26 -34 0
-26 -43 0
-26 -52 0
-26 -61 0
-26 -70 0
-26 -79 0
-26 -89 0
-26 -98 0
-26 -108 0
-26 -118 0
-26 -134 0
-26 -144 0
-26 -153 0
-26 -162 0
-26 -171 0
-26 -181 0
-34 -43 0
-34 -52 0
-34 -61 0
-34 -70 0
-34 -79 0
-34 -89 0
-34 -98 0
-34 -108 0
-34 -118 0
-34 -134 0
-34 -144 0
-34 -153 0
-34 -162 0
-34 -171 0
-34 -181 0
-43 -52 0
-43 -61 0
-43 -70 0
-43 -79 0
-43 -89 0
-43 -98 0
-43 -108 0
-43 -118 0
-43 -134 0
-43 -144 0
-43 -153 0
-43 -162 0
-43 -171 0
-43 -181 0
-52 -61 0
-52 -70 0
-52 -79 0
-52 -89 0
-52 -98 0
-52 -108 0
-52 -118 0
-52 -134 0
-52 -144 0
-52 -153 0
-52 -162 0
-52 -171 0
-52 -181 0
-61 -70 0
-61 -79 0
-61 -89 0
-61 -98 0
-61 -108 0
-61 -118 0
-61 -134 0
-61 -144 0
-61 -153 0
-61 -162 0
-61 -171 0
-61 -181 0
-70 -79 0
-70 -89 0
-70 -98 0
-70 -108 0
-70 -118 0
-70 -134 0
-70 -144 0
-70 -153 0
-70 -162 0
-70 -171 0
-70 -181 0
-79 -89 0
-79 -98 0
-79 -108 0
-79 -118 0
-79 -134 0
-79 -144 0
-79 -153 0
-79 -162 0
-79 -171 0
-79 -181 0
-89 -98 0
-89 -108 0
-89 -118 0
-89 -134 0
-89 -144 0
-89 -153 0
-89 -162 0
-89 -171 0
-89 -181 0
-98 -108 0
-98 -118 0
-98 -134 0
-98 -144 0
-98 -153 0
-98 -162 0
-98 -171 0
-98 -181 0
-108 -118 0
-108 -134 0
-108 -144 0
-108 -153 0
-108 -162 0
-108 -171 0
-108 -181 0
-118 -134 0
-118 -144 0
-118 -153 0
-118 -162 0
-118 -171 0
-118 -181 0
-134 -144 0
-134 -153 0
-134 -162 0
-134 -171 0
-134 -181 0
-144 -153 0
-144 -162 0
-144 -171 0
-144 -181 0
-153 -162 0
-153 -171 0
-153 -181 0
-162 -171 0
-162 -181 0
-171 -181 0
-7 -17 0
-7 -27 0
-7 -35 0
-7 -44 0
-7 -53 0
-7 -71 0
-7 -80 0
-7 -90 0
-7 -99 0
-7 -109 0
-7 -119 0
-7 -126 0
-7 -135 0
-7 -145 0
-7 -154 0
-7 -163 0
-7 -172 0
-7 -182 0
-17 -27 0
-17 -35 0
-17 -44 0
-17 -53 0
-17 -71 0
-17 -80 0
-17 -90 0
-17 -99 0
-17 -109 0
-17 -119 0
-17 -126 0
-17 -135 0
-17 -145 0
-17 -154 0
-17 -163 0
-17 -172 0
-17 -182 0
-27 -35 0
-27 -44 0
-27 -53 0
-27 -71 0
-27 -80 0
-27 -90 0
-27 -99 0
-27 -109 0
-27 -119 0
-27 -126 0
-27 -135 0
-27 -145 0
-27 -154 0
-27 -163 0
-27 -172 0
-27 -182 0
-35 -44 0
-35 -53 0
-35 -71 0
-35 -80 0
-35 -90 0
-35 -99 0
-35 -109 0
-35 -119 0
-35 -126 0
-35 -135 0
-35 -145 0
-35 -154 0
-35 -163 0
-35 -172 0
-35 -182 0
-44 -53 0
-44 -71 0
-44 -80 0
-44 -90 0
-44 -99 0
-44 -109 0
-44 -119 0
-44 -126 0
-44 -135 0
-44 -145 0
-44 -154 0
-44 -163 0
-44 -172 0
-44 -182 0
-53 -71 0
-53 -80 0
-53 -90 0
-53 -99 0
-53 -109 0
-53 -119 0
-53 -126 0
-53 -135 0
-53 -145 0
-53 -154 0
-53 -163 0
-53 -172 0
-53 -182 0
-71 -80 0
-71 -90 0
-71 -99 0
-71 -109 0
-71 -119 0
-71 -126 0
-71 -135 0
-71 -145 0
-71 -154 0
-71 -163 0
-71 -172 0
-71 -182 0
-80 -90 0
-80 -99 0
-80 -109 0
-80 -119 0
-80 -126 0
-80 -135 0
-80 -145 0
-80 -154 0
-80 -163 0
-80 -172 0
-80 -182 0
-90 -99 0
-90 -109 0
-90 -119 0
-90 -126 0
-90 -135 0
-90 -145 0
-90 -154 0
-90 -163 0
-90 -172 0
-90 -182 0
-99 -109 0
-99 -119 0
-99 -126 0
-99 -135 0
-99 -145 0
-99 -154 0
-99 -163 0
-99 -172 0
-99 -182 0
-109 -119 0
-109 -126 0
-109 -135 0
-109 -145 0
-109 -154 0
-109 -163 0
-109 -172 0
-109 -182 0
-119 -126 0
-119 -135 0
-119 -145 0
-119 -154 0
-119 -163 0
-119 -172 0
-119 -182 0
-126 -135 0
-126 -145 0
-126 -154 0
-126 -163 0
-126 -172 0
-126 -182 0
-135 -145 0
-135 -154 0
-135 -163 0
-135 -172 0
-135 -182 0
-145 -154 0
-145 -163 0
-145 -172 0
-145 -182 0
-154 -163 0
-154 -172 0
-154 -182 0
-163 -172 0
-163 -182 0
-172 -182 0
-8 -18 0
-8 -28 0
-8 -36 0
-8 -45 0
-8 -54 0
-8 -62 0
-8 -72 0
-8 -81 0
-8 -91 0
-8 -100 0
-8 -110 0
-8 -120 0
-8 -127 0
-8 -136 0
-8 -155 0
-8 -164 0
-8 -173 0
-8 -183 0
-18 -28 0
-18 -36 0
-18 -45 0
-18 -54 0
-18 -62 0
-18 -72 0
-18 -81 0
-18 -91 0
-18 -100 0
-18 -110 0
-18 -120 0
-18 -127 0
-18 -136 0
-18 -155 0
-18 -164 0
-18 -173 0
-18 -183 0
-28 -36 0
-28 -45 0
-28 -54 0
-28 -62 0
-28 -72 0
-28 -81 0
-28 -91 0
-28 -100 0
-28 -110 0
-28 -120 0
-28 -127 0
-28 -136 0
-28 -155 0
-28 -164 0
-28 -173 0
-28 -183 0
-36 -45 0
-36 -54 0
-36 -62 0
-36 -72 0
-36 -81 0
-36 -91 0
-36 -100 0
-36 -110 0
-36 -120 0
-36 -127 0
-36 -136 0
-36 -155 0
-36 -164 0
-36 -173 0
-36 -183 0
-45 -54 0
-45 -62 0
-45 -72 0
-45 -81 0
-45 -91 0
-45 -100 0
-45 -110 0
-45 -120 0
-45 -127 0
-45 -136 0
-45 -155 0
-45 -164 0
-45 -173 0
-45 -183 0
-54 -62 0
-54 -72 0
-54 -81 0
-54 -91 0
-54 -100 0
-54 -110 0
-54 -120 0
-54 -127 0
-54 -136 0
-54 -155 0
-54 -164 0
-54 -173 0
-54 -183 0
-62 -72 0
-62 -81 0
-62 -91 0
-62 -100 0
-62 -110 0
-62 -120 0
-62 -127 0
-62 -136 0
-62 -155 0
-62 -164 0
-62 -173 0
-62 -183 0
-72 -81 0
-72 -91 0
-72 -100 0
-72 -110 0
-72 -120 0
-72 -127 0
-72 -136 0
-72 -155 0
-72 -164 0
-72 -173 0
-72 -183 0
-81 -91 0
-81 -100 0
-81 -110 0
-81 -120 0
-81 -127 0
-81 -136 0
-81 -155 0
-81 -164 0
-81 -173 0
-81 -183 0
-91 -100 0
-91 -110 0
-91 -120 0
-91 -127 0
-91 -136 0
-91 -155 0
-91 -164 0
-91 -173 0
-91 -183 0
-100 -110 0
-100 -120 0
-100 -127 0
-100 -136 0
-100 -155 0
-100 -164 0
-100 -173 0
-100 -183 0
-110 -120 0
-110 -127 0
-110 -136 0
-110 -155 0
-110 -164 0
-110 -173 0
-110 -183 0
-120 -127 0
-120 -136 0
-120 -155 0
-120 -164 0
-120 -173 0
-120 -183 0
-127 -136 0
-127 -155 0
-127 -164 0
-127 -173 0
-127 -183 0
-136 -155 0
-136 -164 0
-136 -173 0
-136 -183 0
-155 -164 0
-155 -173 0
-155 -183 0
-164 -173 0
-164 -183 0
-173 -183 0
-9 -19 0
-9 -29 0
-9 -37 0
-9 -46 0
-9 -55 0
-9 -63 0
-9 -82 0
-9 -92 0
-9 -101 0
-9 -111 0
-9 -121 0
-9 -128 0
-9 -137 0
-9 -146 0
-9 -156 0
-9 -165 0
-9 -174 0
-9 -184 0
-19 -29 0
-19 -37 0
-19 -46 0
-19 -55 0
-19 -63 0
-19 -82 0
-19 -92 0
-19 -101 0
-19 -111 0
-19 -121 0
-19 -128 0
-19 -137 0
-19 -146 0
-19 -156 0
-19 -165 0
-19 -174 0
-19 -184 0
-29 -37 0
-29 -46 0
-29 -55 0
-29 -63 0
-29 -82 0
-29 -92 0
-29 -101 0
-29 -111 0
-29 -121 0
-29 -128 0
-29 -137 0
-29 -146 0
-29 -156 0
-29 -165 0
-29 -174 0
-29 -184 0
-37 -46 0
-37 -55 0
-37 -63 0
-37 -82 0
-37 -92 0
-37 -101 0
-37 -111 0
-37 -121 0
-37 -128 0
-37 -137 0
-37 -146 0
-37 -156 0
-37 -165 0
-37 -174 0
-37 -184 0
-46 -55 0
-46 -63 0
-46 -82 0
-46 -92 0
-46 -101 0
-46 -111 0
-46 -121 0
-46 -128 0
-46 -137 0
-46 -146 0
-46 -156 0
-46 -165 0
-46 -174 0
-46 -184 0
-55 -63 0
-55 -82 0
-55 -92 0
-55 -101 0
-55 -111 0
-55 -121 0
-55 -128 0
-55 -137 0
-55 -146 0
-55 -156 0
-55 -165 0
-55 -174 0
-55 -184 0
-63 -82 0
-63 -92 0
-63 -101 0
-63 -111 0
-63 -121 0
-63 -128 0
-63 -137 0
-63 -146 0
-63 -156 0
-63 -165 0
-63 -174 0
-63 -184 0
-82 -92 0
-82 -101 0
-82 -111 0
-82 -121 0
-82 -128 0
-82 -137 0
-82 -146 0
-82 -156 0
-82 -165 0
-82 -174 0
-82 -184 0
-92 -101 0
-92 -111 0
-92 -121 0
-92 -128 0
-92 -137 0
-92 -146 0
-92 -156 0
-92 -165 0
-92 -174 0
-92 -184 0
-101 -111 0
-101 -121 0
-101 -128 0
-101 -137 0
-101 -146 0
-101 -156 0
-101 -165 0
-101 -174 0
-101 -184 0
-111 -121 0
-111 -128 0
-111 -137 0
-111 -146 0
-111 -156 0
-111 -165 0
-111 -174 0
-111 -184 0
-121 -128 0
-121 -137 0
-121 -146 0
-121 -156 0
-121 -165 0
-121 -174 0
-121 -184 0
-128 -137 0
-128 -146 0
-128 -156 0
-128 -165 0
-128 -174 0
-128 -184 0
-137 -146 0
-137 -156 0
-137 -165 0
-137 -174 0
-137 -184 0
-146 -156 0
-146 -165 0
-146 -174 0
-146 -184 0
-156 -165 0
-156 -174 0
-156 -184 0
-165 -174 0
-165 -184 0
-174 -184 0